RT is False
Default write of storage_offers_DA.csv just to have a file (but constraint should be inactive)
Reading model...
...model read.
creating competitive generators file...
...competitive generators recorded.
Loading data...
.. day-ahead data with real-time VRE data read.
Compiling instance...
...instance created.
Creating Offer Mitigation (model will solve as dispatch if TRUE)...
NOTE: storage offers will not be mitigated
...storage offer mitigation file created
Converting model to MPEC...
...converted
NOTE: initial MIP solve with only storage competitive to get feasible solution
Solving...

Welcome to IBM(R) ILOG(R) CPLEX(R) Interactive Optimizer 12.9.0.0
  with Simplex, Mixed Integer & Barrier Optimizers
5725-A06 5725-A29 5724-Y48 5724-Y49 5724-Y54 5724-Y55 5655-Y21
Copyright IBM Corp. 1988, 2019.  All Rights Reserved.

Type 'help' for a list of available commands.
Type 'help' followed by a command name for more
information on commands.

CPLEX> Logfile 'cplex.log' closed.
Logfile 'C:\Users\llavin\Desktop\test826\logs\tmphtbp5g_r.cplex.log' open.
CPLEX> New value for parallel optimization mode: -1
CPLEX> New value for emphasis for MIP optimization: 1
CPLEX> New value for mixed integer optimality gap tolerance: 0.01
CPLEX> New value for integrality tolerance: 1e-12
CPLEX> New value for deterministic time limit in ticks: 75000
CPLEX> Problem 'C:\Users\llavin\Desktop\test826\logs\tmp_oy47wot.pyomo.lp' read.
Read time = 0.24 sec. (13.92 ticks)
CPLEX> Problem name         : C:\Users\llavin\Desktop\test826\logs\tmp_oy47wot.pyomo.lp
Objective sense      : Maximize
Variables            :   53809  [Nneg: 1,  Box: 22004,  Free: 4464,
                                 Binary: 27340]
Objective nonzeros   :    8980
Linear constraints   :  123253  [Less: 41346,  Greater: 59096,  Equal: 22811]
  Nonzeros           :  293289
  RHS nonzeros       :   67491

Variables            : Min LB: -5000.000        Max UB: 1000000.       
Objective nonzeros   : Min   : 0.01666667       Max   : 834.5500       
Linear constraints   :
  Nonzeros           : Min   : 0.01666667       Max   : 1000000.       
  RHS nonzeros       : Min   : 0.01666667       Max   : 1000000.       
CPLEX> CPXPARAM_Parallel                                -1
CPXPARAM_Emphasis_MIP                            1
CPXPARAM_DetTimeLimit                            75000
CPXPARAM_MIP_Tolerances_MIPGap                   0.01
CPXPARAM_MIP_Tolerances_Integrality              9.9999999999999998e-13
Tried aggregator 4 times.
MIP Presolve eliminated 88664 rows and 18920 columns.
MIP Presolve added 3404 rows and 0 columns.
MIP Presolve modified 24908 coefficients.
Aggregator did 13030 substitutions.
Reduced MIP has 24963 rows, 21303 columns, and 71215 nonzeros.
Reduced MIP has 8416 binaries, 0 generals, 0 SOSs, and 0 indicators.
Presolve time = 0.33 sec. (193.88 ticks)
Probing fixed 415 vars, tightened 4172 bounds.
Probing time = 0.06 sec. (19.35 ticks)
Tried aggregator 2 times.
MIP Presolve eliminated 935 rows and 832 columns.
MIP Presolve modified 3034 coefficients.
Aggregator did 27 substitutions.
Reduced MIP has 24001 rows, 20444 columns, and 68422 nonzeros.
Reduced MIP has 8001 binaries, 0 generals, 0 SOSs, and 0 indicators.
Presolve time = 0.11 sec. (89.19 ticks)
Probing fixed 0 vars, tightened 304 bounds.
Probing time = 0.16 sec. (24.20 ticks)
Clique table members: 44813.
MIP emphasis: integer feasibility.
MIP search method: dynamic search.
Parallel mode: opportunistic, using up to 32 threads.
Root relaxation solution time = 0.41 sec. (602.82 ticks)

        Nodes                                         Cuts/
   Node  Left     Objective  IInf  Best Integer    Best Bound    ItCnt     Gap

      0     0     7723.6396   142                   7723.6396     5110         
      0     0     7722.1141    10                    Cuts: 13     5125         
      0     0     7710.8718    11                    Cuts: 10     5133         
      0     0     7708.6458    13                     Cuts: 8     5138         
*     0+    0                         7655.5401     7708.6458             0.69%

Clique cuts applied:  2
Cover cuts applied:  1
Implied bound cuts applied:  2
Flow cuts applied:  10
Mixed integer rounding cuts applied:  1
Gomory fractional cuts applied:  1

Root node processing (before b&c):
  Real time             =    2.33 sec. (1735.08 ticks)
Parallel b&c, 32 threads:
  Real time             =    0.00 sec. (0.00 ticks)
  Sync time (average)   =    0.00 sec.
  Wait time (average)   =    0.00 sec.
                          ------------
Total (root+branch&cut) =    2.33 sec. (1735.08 ticks)

Solution pool: 1 solution saved.

MIP - Integer optimal, tolerance (0.01/1e-06):  Objective =  7.6555401143e+03
Current MIP best bound =  7.7086458103e+03 (gap = 53.1057, 0.69%)
Solution time =    2.34 sec.  Iterations = 5138  Nodes = 0 (1)
Deterministic time = 1735.23 ticks  (740.29 ticks/sec)

CPLEX> Incumbent solution written to file 'C:\Users\llavin\Desktop\test826\logs\tmp_3nls6hc.cplex.sol'.
CPLEX> NOTE: no warmstart specified for MIP iteration, default behavior is true
NOTE: resolving with all competitive generators using storage-only solution to warmstart
Solving...

Welcome to IBM(R) ILOG(R) CPLEX(R) Interactive Optimizer 12.9.0.0
  with Simplex, Mixed Integer & Barrier Optimizers
5725-A06 5725-A29 5724-Y48 5724-Y49 5724-Y54 5724-Y55 5655-Y21
Copyright IBM Corp. 1988, 2019.  All Rights Reserved.

Type 'help' for a list of available commands.
Type 'help' followed by a command name for more
information on commands.

CPLEX> Logfile 'cplex.log' closed.
Logfile 'C:\Users\llavin\Desktop\test826\logs\tmpxxs6kedo.cplex.log' open.
CPLEX> New value for parallel optimization mode: -1
CPLEX> New value for emphasis for MIP optimization: 1
CPLEX> New value for mixed integer optimality gap tolerance: 0.01
CPLEX> New value for integrality tolerance: 1e-12
CPLEX> New value for deterministic time limit in ticks: 75000
CPLEX> Problem 'C:\Users\llavin\Desktop\test826\logs\tmphg3hweyh.pyomo.lp' read.
Read time = 0.24 sec. (13.94 ticks)
CPLEX> MIP start file 'C:\Users\llavin\Desktop\test826\logs\tmp5fp7hvak.cplex.mst' read.
CPLEX> Problem name         : C:\Users\llavin\Desktop\test826\logs\tmphg3hweyh.pyomo.lp
Objective sense      : Maximize
Variables            :   54529  [Nneg: 1,  Box: 22724,  Free: 4464,
                                 Binary: 27340]
Objective nonzeros   :    9676
Linear constraints   :  123253  [Less: 41346,  Greater: 59096,  Equal: 22811]
  Nonzeros           :  293289
  RHS nonzeros       :   67491

Variables            : Min LB: -5000.000        Max UB: 1000000.       
Objective nonzeros   : Min   : 0.01666667       Max   : 786.3833       
Linear constraints   :
  Nonzeros           : Min   : 0.01666667       Max   : 1000000.       
  RHS nonzeros       : Min   : 0.01666667       Max   : 1000000.       
CPLEX> CPXPARAM_Parallel                                -1
CPXPARAM_Emphasis_MIP                            1
CPXPARAM_DetTimeLimit                            75000
CPXPARAM_MIP_Tolerances_MIPGap                   0.01
CPXPARAM_MIP_Tolerances_Integrality              9.9999999999999998e-13
Warning:  No solution found from 1 MIP starts.
Retaining values of one MIP start for possible repair.
Tried aggregator 4 times.
MIP Presolve eliminated 88664 rows and 19640 columns.
MIP Presolve added 3404 rows and 0 columns.
MIP Presolve modified 24908 coefficients.
Aggregator did 13030 substitutions.
Reduced MIP has 24963 rows, 21303 columns, and 71215 nonzeros.
Reduced MIP has 8416 binaries, 0 generals, 0 SOSs, and 0 indicators.
Presolve time = 0.34 sec. (194.29 ticks)
Probing fixed 415 vars, tightened 4172 bounds.
Probing time = 0.08 sec. (19.35 ticks)
Tried aggregator 2 times.
MIP Presolve eliminated 935 rows and 832 columns.
MIP Presolve modified 3034 coefficients.
Aggregator did 27 substitutions.
Reduced MIP has 24001 rows, 20444 columns, and 68422 nonzeros.
Reduced MIP has 8001 binaries, 0 generals, 0 SOSs, and 0 indicators.
Presolve time = 0.11 sec. (89.19 ticks)
Probing fixed 0 vars, tightened 304 bounds.
Probing time = 0.14 sec. (24.20 ticks)
Clique table members: 44813.
MIP emphasis: integer feasibility.
MIP search method: dynamic search.
Parallel mode: opportunistic, using up to 32 threads.
Root relaxation solution time = 0.45 sec. (658.74 ticks)

        Nodes                                         Cuts/
   Node  Left     Objective  IInf  Best Integer    Best Bound    ItCnt     Gap

      0     0   162170.6601   313                 162170.6601     5881         
      0     0   159234.9055   278                   Cuts: 232     6172         
      0     0   157960.8465   285                   Cuts: 115     6347         
      0     0   157567.8348   296                    Cuts: 76     6450         
Repair heuristic found nothing.
      0     2   157567.8348   296                    Cuts: 11     6450         
Elapsed time = 4.64 sec. (1931.28 ticks, tree = 0.02 MB, solutions = 0)
    530   167   135166.9754   202                 153375.1446     9169         
   1058   770   116518.2599   160                 153375.1446    24218         
   1662   986   101769.8759   212                 153375.1446    28038         
   2283  1310    infeasible                       153375.1446    37156         
   2937  1746   -76414.2382    81                 153375.1446    49860         
   3582  2192    infeasible                       153375.1446    58131         
   4263  2664    infeasible                       153375.1446    68160         
   4879  3147    infeasible                       153375.1446    85400         
   5542  3182    56769.1974   123                 153375.1446    90113         
   7896  4795    86194.1315   160                 153375.1446   137613         
Elapsed time = 20.94 sec. (5037.46 ticks, tree = 173.29 MB, solutions = 0)
  10131  6510  -291125.7529   142                 153375.1446   193558         
  12365  8582  -108046.0597    76                 153375.1446   265411         
  14808  9530   -83352.6198   122                 152934.2326   305450         
  17218 11189    infeasible                       152934.2326   379422         
  19767 11633    infeasible                       152246.3749   401430         
  21990 13601  -353271.9865   129                 136353.1272   512000         
  24136 15108    35734.2203   125                 135202.0732   596412         
  26297 16192    infeasible                       135202.0732   668098         
  28308 17751    82937.9971   142                 133793.8363   828584         
  30413 17459    infeasible                       131804.0143   795068         
Elapsed time = 165.33 sec. (14576.38 ticks, tree = 992.53 MB, solutions = 0)
  32504 18307    32008.7373   118                 130020.2245   882817         
  34633 20762    infeasible                       111875.7715  1083745         
  36839 20210    18506.8902    66                 108249.0372  1045286         
  39103 22019    infeasible                        99029.4437  1199848         
  41226 22494    infeasible                        94846.0694  1266847         
  43372 23143    34454.3177    82                  92473.8161  1339456         
  45476 23934 -1493705.4419   102                  92473.8161  1428901         
  47722 25736  -619893.3787    97                  92473.8161  1579788         
* 48790 26307      integral     0    38824.0509    92473.8161  1615018  138.19%
  50743 25705    20008.3356    42    38824.0509    92473.8161  1575936  138.19%
Elapsed time = 371.19 sec. (23631.26 ticks, tree = 1437.46 MB, solutions = 1)
  51837 26554    infeasible          38824.0509    92473.8161  1629276  138.19%
  51867  7974    infeasible          38824.0509    92473.8161  1725125  138.19%
  53600   525    40805.9722    56    38824.0509    64781.1910  1741976   66.86%
  56276   940    39395.9561    42    38824.0509    64781.1910  1749113   66.86%
  59001  2462    39899.4833    39    38824.0509    64781.1910  1761208   66.86%
  60339  2496        cutoff          38824.0509    64781.1910  1761985   66.86%
  61090  2860    40528.1927    45    38824.0509    64781.1910  1765097   66.86%
  61587  4287    39992.4167    58    38824.0509    64781.1910  1777163   66.86%
  62063  3946        cutoff          38824.0509    64781.1910  1774112   66.86%
  62524  4420    39430.8440    39    38824.0509    64781.1910  1778064   66.86%
Elapsed time = 405.80 sec. (34582.96 ticks, tree = 34.11 MB, solutions = 4)
  62825  4432        cutoff          40678.4323    64781.1910  1778164   59.25%
  63099  3612    39023.0729     8    40678.4323    64781.1910  1771070   59.25%
  63303  3690        cutoff          40678.4323    64781.1910  1800343   59.25%
  63587  4607        cutoff          40678.4323    64781.1910  1779839   59.25%
  63897  4274    39340.3307    23    40678.4323    64781.1910  1777254   59.25%
  64207  3816    42760.8310    78    40678.4323    64781.1910  1802264   59.25%
  64613  3390    42462.6939    59    40678.4323    64781.1910  1795467   59.25%
  65114  5064    39478.1391    15    40678.4323    64781.1910  1785662   59.25%
  65601  3627    40931.8766    58    40678.4323    64781.1910  1798599   59.25%
  66091  3628    42033.5594    62    40678.4323    64781.1910  1799301   59.25%
Elapsed time = 436.50 sec. (44142.70 ticks, tree = 24.49 MB, solutions = 4)
  66569  3191    40678.4675    44    40678.4323    64781.1910  1793027   59.25%
  67581  3234    40678.4675    42    40678.4323    64781.1910  1793273   59.25%
  68843  3306    40678.4675    45    40678.4323    64781.1910  1794138   59.25%
  70153  3410    40930.4861    43    40678.4323    64781.1910  1794086   59.25%
  71438  3308    41258.0871    54    40678.4323    64781.1910  1794594   59.25%
  72843  3444    41711.4067    38    40678.4323    64781.1910  1795514   59.25%
  74445  3790    infeasible          40678.4323    64781.1910  1802640   59.25%
  75755  3765    42615.0421    54    40678.4323    64781.1910  1802271   59.25%
  76681  3653    42430.4211    47    40678.4323    64781.1910  1800261   59.25%
  77321  3937    42391.0966    41    40678.4323    64781.1910  1803189   59.25%
Elapsed time = 444.50 sec. (53690.51 ticks, tree = 26.95 MB, solutions = 4)
  77648  3874        cutoff          40678.4323    64781.1910  1803986   59.25%
  78009  5127    40744.6608    14    40678.4323    64781.1910  1814479   59.25%
  78178  3894        cutoff          40678.4323    64781.1910  1803229   59.25%
  78351  5336    43102.4016    39    40678.4323    64781.1910  1816712   59.25%
  78532  4119        cutoff          40678.4323    64781.1910  1808815   59.25%
  78705  4398        cutoff          40678.4323    64781.1910  1807659   59.25%
  78778  4295        cutoff          40678.4323    64781.1910  1807448   59.25%
  78845  4864        cutoff          40678.4323    64781.1910  1812525   59.25%
  78910  4401        cutoff          40678.4323    64781.1910  1807904   59.25%
  79004  4779    43247.1811    18    40678.4323    64781.1910  1811176   59.25%
Elapsed time = 444.50 sec. (63311.16 ticks, tree = 34.77 MB, solutions = 4)
  79068  6065    43247.1811    16    40678.4323    64781.1910  1824352   59.25%
  79132  4867        cutoff          40678.4323    64781.1910  1812512   59.25%
  79228  4813        cutoff          40678.4323    64781.1910  1811340   59.25%
  79284  6070        cutoff          40678.4323    64781.1910  1824564   59.25%
  79345  5345        cutoff          40678.4323    64781.1910  1817015   59.25%
  79394  5131    40744.6608    16    40678.4323    64781.1910  1814505   59.25%
  79445  5790    43096.9063     6    40678.4323    64781.1910  1821678   59.25%
  79487  6531    41591.8217     5    40678.4323    64781.1910  1830949   59.25%
  79529  5667        cutoff          40678.4323    64781.1910  1818818   59.25%
  79564  6422        cutoff          40678.4323    64781.1910  1828578   59.25%
Elapsed time = 444.50 sec. (72986.48 ticks, tree = 51.35 MB, solutions = 4)
  79615  6543    41462.4785     6    40678.4323    64781.1910  1830986   59.25%
  79642  6536        cutoff          40678.4323    64781.1910  1831215   59.25%

GUB cover cuts applied:  3
Clique cuts applied:  3
Cover cuts applied:  22
Implied bound cuts applied:  89
Flow cuts applied:  200
Mixed integer rounding cuts applied:  8
Zero-half cuts applied:  5
Gomory fractional cuts applied:  15

Root node processing (before b&c):
  Real time             =    2.77 sec. (1879.24 ticks)
Parallel b&c, 32 threads:
  Real time             =  442.08 sec. (73713.48 ticks)
  Sync time (average)   =   10.17 sec.
  Wait time (average)   =    0.18 sec.
                          ------------
Total (root+branch&cut) =  444.84 sec. (75592.72 ticks)

Solution pool: 4 solutions saved.

MIP - Deterministic time limit exceeded, integer feasible:  Objective =  4.0678432251e+04
Current MIP best bound =  6.4781191013e+04 (gap = 24102.8, 59.25%)
Solution time =  444.86 sec.  Iterations = 1890003  Nodes = 79643 (10092)
Deterministic time = 75592.88 ticks  (169.93 ticks/sec)

CPLEX> Incumbent solution written to file 'C:\Users\llavin\Desktop\test826\logs\tmpp3187mqn.cplex.sol'.
CPLEX> Exporting results... 
